NAME           ..\..\data\bm23.ltx
ROWS
 N       OBJ
 L  R101____
 L  R102____
 L  R103____
 L  R104____
 L  R105____
 L  R106____
 L  R107____
 L  R108____
 L  R109____
 L  R110____
 L  R111____
 L  R112____
 L  R113____
 L  R114____
 L  R115____
 L  R116____
 L  R117____
 L  R118____
 L  R119____
 L  R120____
COLUMNS
    C101       OBJ  3
    C101  R101____  -6
    C101  R102____  -6
    C101  R103____  -9
    C101  R104____  -9
    C101  R105____  7
    C101  R106____  7
    C101  R107____  -1
    C101  R108____  -1
    C101  R109____  -1
    C101  R111____  -1
    C101  R112____  -2
    C101  R113____  -2
    C101  R114____  7
    C101  R115____  7
    C101  R116____  -3
    C101  R117____  -3
    C101  R118____  -4
    C101  R119____  -4
    C101  R120____  -6
    C102       OBJ  2
    C102  R101____  5
    C102  R102____  5
    C102  R103____  -5
    C102  R104____  -5
    C102  R105____  5
    C102  R106____  5
    C102  R107____  2
    C102  R108____  2
    C102  R109____  3
    C102  R111____  3
    C102  R113____  9
    C102  R114____  9
    C102  R115____  6
    C102  R116____  6
    C102  R117____  -9
    C102  R118____  -9
    C102  R119____  8
    C102  R120____  8
    C103       OBJ  5
    C103  R101____  -8
    C103  R102____  -8
    C103  R103____  4
    C103  R105____  4
    C103  R106____  3
    C103  R107____  3
    C103  R108____  -7
    C103  R109____  -7
    C103  R111____  5
    C103  R112____  5
    C103  R113____  -7
    C103  R114____  -7
    C103  R115____  1
    C103  R116____  1
    C103  R117____  -5
    C103  R118____  -5
    C103  R119____  2
    C103  R120____  2
    C104       OBJ  8
    C104  R102____  -3
    C104  R103____  -3
    C104  R104____  5
    C104  R105____  5
    C104  R107____  -9
    C104  R108____  -9
    C104  R109____  -4
    C104  R111____  -4
    C104  R113____  -5
    C104  R114____  -5
    C104  R115____  -3
    C104  R116____  -3
    C104  R117____  -5
    C104  R119____  -5
    C105       OBJ  6
    C105  R101____  -8
    C105  R103____  -8
    C105  R104____  9
    C105  R105____  9
    C105  R106____  1
    C105  R107____  1
    C105  R109____  5
    C105  R111____  5
    C105  R112____  -2
    C105  R113____  -2
    C105  R114____  -5
    C105  R116____  -5
    C105  R117____  -7
    C105  R119____  -7
    C105  R120____  -8
    C106       OBJ  9
    C106  R101____  -1
    C106  R102____  -1
    C106  R103____  8
    C106  R104____  8
    C106  R105____  6
    C106  R106____  6
    C106  R108____  5
    C106  R111____  5
    C106  R112____  -5
    C106  R113____  -5
    C106  R114____  -6
    C106  R115____  -6
    C106  R116____  -2
    C106  R117____  -2
    C106  R118____  -7
    C106  R119____  -7
    C106  R120____  -7
    C107       OBJ  7
    C107  R101____  -3
    C107  R102____  -3
    C107  R103____  -3
    C107  R104____  -3
    C107  R105____  7
    C107  R106____  7
    C107  R107____  -9
    C107  R108____  -9
    C107  R109____  7
    C107  R111____  7
    C107  R112____  -9
    C107  R113____  -9
    C107  R114____  -3
    C107  R115____  -3
    C107  R116____  7
    C107  R118____  7
    C107  R119____  -6
    C107  R120____  -6
    C108       OBJ  4
    C108  R101____  -8
    C108  R102____  -8
    C108  R103____  9
    C108  R104____  9
    C108  R105____  6
    C108  R106____  6
    C108  R107____  9
    C108  R108____  9
    C108  R109____  8
    C108  R111____  8
    C108  R112____  -2
    C108  R113____  -2
    C108  R114____  7
    C108  R115____  7
    C108  R116____  3
    C108  R117____  3
    C108  R118____  5
    C108  R119____  5
    C109       OBJ  5
    C109  R101____  -9
    C109  R102____  -9
    C109  R104____  -3
    C109  R105____  -3
    C109  R106____  -6
    C109  R107____  -6
    C109  R108____  7
    C109  R109____  7
    C109  R111____  -1
    C109  R112____  -1
    C109  R113____  9
    C109  R114____  9
    C109  R115____  3
    C109  R116____  3
    C109  R117____  -1
    C109  R118____  -1
    C109  R120____  9
    C110       OBJ  6
    C110  R101____  3
    C110  R102____  3
    C110  R103____  3
    C110  R104____  3
    C110  R105____  -7
    C110  R106____  -7
    C110  R108____  -4
    C110  R109____  -4
    C110  R110____  1
    C110  R112____  1
    C110  R113____  3
    C110  R114____  3
    C110  R115____  -9
    C110  R116____  -9
    C110  R117____  7
    C110  R118____  7
    C110  R119____  4
    C110  R120____  4
    C111       OBJ  3
    C111  R101____  -8
    C111  R102____  -8
    C111  R103____  -1
    C111  R106____  -1
    C111  R107____  5
    C111  R108____  5
    C111  R110____  4
    C111  R112____  4
    C111  R113____  -4
    C111  R114____  -4
    C111  R115____  -6
    C111  R116____  -6
    C111  R117____  2
    C111  R118____  2
    C111  R119____  -8
    C111  R120____  -8
    C112       OBJ  2
    C112  R101____  6
    C112  R102____  6
    C112  R103____  -7
    C112  R104____  -7
    C112  R105____  -8
    C112  R106____  -8
    C112  R108____  2
    C112  R109____  2
    C112  R110____  -1
    C112  R111____  -1
    C112  R112____  -3
    C112  R113____  -3
    C112  R115____  -3
    C112  R116____  -3
    C112  R117____  -6
    C112  R118____  -6
    C112  R119____  9
    C113       OBJ  4
    C113  R101____  -3
    C113  R102____  -3
    C113  R103____  5
    C113  R104____  5
    C113  R105____  -3
    C113  R106____  -3
    C113  R107____  1
    C113  R108____  1
    C113  R109____  -1
    C113  R110____  -1
    C113  R111____  -7
    C113  R112____  -7
    C113  R113____  8
    C113  R115____  8
    C113  R116____  2
    C113  R118____  2
    C113  R120____  -3
    C114       OBJ  5
    C114  R101____  -8
    C114  R102____  -8
    C114  R103____  4
    C114  R104____  4
    C114  R105____  9
    C114  R106____  9
    C114  R107____  -3
    C114  R108____  -3
    C114  R110____  4
    C114  R111____  4
    C114  R112____  6
    C114  R113____  6
    C114  R114____  -3
    C114  R115____  -3
    C114  R116____  6
    C114  R117____  6
    C114  R118____  8
    C114  R119____  8
    C114  R120____  3
    C115       OBJ  8
    C115  R101____  -6
    C115  R102____  -6
    C115  R103____  -9
    C115  R104____  -9
    C115  R105____  1
    C115  R106____  1
    C115  R107____  -9
    C115  R108____  -9
    C115  R109____  1
    C115  R110____  1
    C115  R111____  2
    C115  R112____  2
    C115  R113____  -7
    C115  R114____  -7
    C115  R115____  6
    C115  R116____  6
    C115  R117____  -4
    C115  R118____  -4
    C115  R119____  -8
    C116       OBJ  7
    C116  R101____  7
    C116  R102____  7
    C116  R103____  -1
    C116  R104____  -1
    C116  R105____  -6
    C116  R106____  -6
    C116  R107____  -1
    C116  R108____  -1
    C116  R109____  -1
    C116  R110____  -1
    C116  R111____  -8
    C116  R112____  -8
    C116  R113____  -9
    C116  R114____  -9
    C116  R115____  2
    C116  R116____  2
    C116  R117____  -5
    C116  R118____  -5
    C116  R119____  4
    C116  R120____  4
    C117       OBJ  3
    C117  R101____  6
    C117  R102____  6
    C117  R103____  -9
    C117  R104____  -9
    C117  R105____  6
    C117  R106____  6
    C117  R107____  -6
    C117  R108____  -6
    C117  R109____  1
    C117  R110____  1
    C117  R111____  -5
    C117  R112____  -5
    C117  R113____  1
    C117  R115____  1
    C117  R116____  -2
    C117  R117____  -2
    C117  R118____  -8
    C117  R119____  -8
    C117  R120____  -6
    C118       OBJ  5
    C118  R101____  -2
    C118  R102____  -2
    C118  R103____  7
    C118  R104____  7
    C118  R105____  6
    C118  R106____  6
    C118  R107____  -8
    C118  R108____  -8
    C118  R109____  1
    C118  R110____  1
    C118  R111____  -5
    C118  R112____  -5
    C118  R113____  9
    C118  R114____  9
    C118  R115____  -6
    C118  R116____  -6
    C118  R117____  5
    C118  R118____  5
    C118  R119____  -2
    C118  R120____  -2
    C119       OBJ  2
    C119  R101____  3
    C119  R102____  3
    C119  R104____  -7
    C119  R105____  -7
    C119  R106____  2
    C119  R107____  2
    C119  R108____  -3
    C119  R109____  -3
    C119  R110____  8
    C119  R111____  8
    C119  R112____  8
    C119  R113____  8
    C119  R114____  4
    C119  R115____  4
    C119  R117____  -1
    C119  R118____  -1
    C119  R119____  3
    C119  R120____  3
    C120       OBJ  4
    C120  R101____  -7
    C120  R102____  -7
    C120  R103____  -7
    C120  R104____  -7
    C120  R105____  1
    C120  R106____  1
    C120  R107____  -9
    C120  R108____  -9
    C120  R110____  3
    C120  R113____  3
    C120  R115____  -7
    C120  R116____  -7
    C120  R118____  -6
    C120  R119____  -6
    C120  R120____  5
    C121       OBJ  3
    C121  R101____  4
    C121  R102____  4
    C121  R103____  4
    C121  R104____  4
    C121  R105____  6
    C121  R106____  6
    C121  R107____  8
    C121  R108____  8
    C121  R109____  2
    C121  R110____  2
    C121  R111____  -1
    C121  R112____  -1
    C121  R114____  -3
    C121  R115____  -3
    C121  R116____  -2
    C121  R118____  -2
    C121  R119____  3
    C121  R120____  3
    C122       OBJ  2
    C122  R101____  5
    C122  R102____  5
    C122  R104____  2
    C122  R105____  2
    C122  R106____  -3
    C122  R107____  -3
    C122  R108____  3
    C122  R109____  3
    C122  R110____  -2
    C122  R111____  -2
    C122  R112____  -8
    C122  R113____  -8
    C122  R115____  -6
    C122  R116____  -6
    C122  R117____  -2
    C122  R118____  -2
    C122  R119____  -4
    C122  R120____  -4
    C123       OBJ  5
    C123  R101____  5
    C123  R102____  5
    C123  R103____  -1
    C123  R104____  -1
    C123  R105____  5
    C123  R106____  5
    C123  R107____  7
    C123  R109____  7
    C123  R110____  -4
    C123  R111____  -4
    C123  R112____  -3
    C123  R113____  -3
    C123  R114____  -1
    C123  R115____  -1
    C123  R116____  1
    C123  R117____  1
    C123  R118____  -7
    C123  R119____  -7
    C123  R120____  -9
    C124       OBJ  6
    C124  R101____  5
    C124  R102____  5
    C124  R103____  1
    C124  R104____  1
    C124  R105____  8
    C124  R107____  8
    C124  R108____  9
    C124  R109____  9
    C124  R110____  -7
    C124  R111____  -7
    C124  R112____  -5
    C124  R113____  -5
    C124  R114____  -9
    C124  R116____  -9
    C124  R117____  1
    C124  R118____  1
    C124  R119____  9
    C124  R120____  9
    C125       OBJ  8
    C125  R101____  -3
    C125  R102____  -3
    C125  R103____  3
    C125  R104____  3
    C125  R105____  5
    C125  R106____  5
    C125  R107____  8
    C125  R108____  8
    C125  R109____  -2
    C125  R110____  -2
    C125  R111____  -1
    C125  R112____  -1
    C125  R113____  5
    C125  R115____  5
    C125  R116____  9
    C125  R117____  9
    C125  R119____  -4
    C125  R120____  -4
    C126       OBJ  1
    C126  R101____  3
    C126  R102____  3
    C126  R103____  -8
    C126  R105____  -8
    C126  R106____  -2
    C126  R107____  -2
    C126  R108____  -3
    C126  R109____  -3
    C126  R110____  7
    C126  R111____  7
    C126  R112____  -2
    C126  R113____  -2
    C126  R114____  4
    C126  R116____  4
    C126  R117____  -2
    C126  R118____  -2
    C126  R120____  -5
    C127       OBJ  1
    C127  R101____  -6
    C127  R103____  -6
    C127  R105____  -8
    C127  R106____  -8
    C127  R107____  -1
    C127  R108____  -1
    C127  R109____  2
    C127  R110____  2
    C127  R111____  -4
    C127  R112____  -4
    C127  R113____  9
    C127  R114____  9
    C127  R115____  2
    C127  R116____  2
    C127  R117____  1
    C127  R118____  1
    C127  R119____  1
    C127  R120____  1
RHS
    RHS1      R101____  65
    RHS1      R102____  -15
    RHS1      R103____  -10
    RHS1      R104____  32
    RHS1      R105____  14
    RHS1      R106____  33
    RHS1      R107____  -5
    RHS1      R108____  3
    RHS1      R109____  18
    RHS1      R110____  10
    RHS1      R111____  17
    RHS1      R112____  -5
    RHS1      R113____  4
    RHS1      R114____  21
    RHS1      R115____  24
    RHS1      R116____  -6
    RHS1      R117____  17
    RHS1      R118____  -13
    RHS1      R119____  -30
    RHS1      R120____  1
BOUNDS
 BV BND1      C101
 BV BND1      C102
 BV BND1      C103
 BV BND1      C104
 BV BND1      C105
 BV BND1      C106
 BV BND1      C107
 BV BND1      C108
 BV BND1      C109
 BV BND1      C110
 BV BND1      C111
 BV BND1      C112
 BV BND1      C113
 BV BND1      C114
 BV BND1      C115
 BV BND1      C116
 BV BND1      C117
 BV BND1      C118
 BV BND1      C119
 BV BND1      C120
 BV BND1      C121
 BV BND1      C122
 BV BND1      C123
 BV BND1      C124
 BV BND1      C125
 BV BND1      C126
 BV BND1      C127
ENDATA
